N = 8;
H = 6;
T = 2;

avail = array3d(1..N, 1..H, 1..T, [1, 5, 4, 10, 0, 6, 8, 9, 6, 5, 5, 4, 8, 6, 6, 7, 10, 1, 7, 6, 1, 5, 10, 3, 8, 10, 6, 8, 5, 8, 7, 10, 1, 7, 6, 2, 3, 8, 0, 9, 0, 3, 6, 6, 7, 6, 5, 1, 7, 4, 5, 10, 3, 8, 5, 4, 1, 4, 9, 4, 9, 3, 7, 3, 4, 10, 9, 2, 6, 9, 4, 6, 4, 2, 4, 1, 5, 7, 8, 8, 1, 8, 6, 3, 7, 9, 1, 7, 9, 7, 10, 10, 3, 0, 8, 7]);

r = array2d(1..H, 1..T, [2, 3, 2, 3, 4, 2, 0, 3, 3, 1, 4, 2]);
